p cnf 963 2472
51 -2 -1 0
-51 2 0
-51 1 0
52 -51 -696 0
-52 51 0
-52 696 0
53 -5 -4 0
-53 5 0
-53 4 0
54 -53 -6 0
-54 53 0
-54 6 0
55 -697 -698 0
-55 697 0
-55 698 0
56 -699 -700 0
-56 699 0
-56 700 0
57 -56 -701 0
-57 56 0
-57 701 0
58 -702 -55 0
-58 702 0
-58 55 0
59 -703 -704 0
-59 703 0
-59 704 0
60 -59 -705 0
-60 59 0
-60 705 0
61 -706 -58 0
-61 706 0
-61 58 0
62 -14 -707 0
-62 14 0
-62 707 0
63 -62 -15 0
-63 62 0
-63 15 0
64 -708 -61 0
-64 708 0
-64 61 0
65 -16 -709 0
-65 16 0
-65 709 0
66 -65 -17 0
-66 65 0
-66 17 0
67 -710 -64 0
-67 710 0
-67 64 0
68 -19 -711 0
-68 19 0
-68 711 0
69 -68 -20 0
-69 68 0
-69 20 0
70 -712 -67 0
-70 712 0
-70 67 0
71 -9 -713 0
-71 9 0
-71 713 0
72 -71 -21 0
-72 71 0
-72 21 0
73 -714 -70 0
-73 714 0
-73 70 0
74 -715 -9 0
-74 715 0
-74 9 0
75 -74 -23 0
-75 74 0
-75 23 0
76 -716 -73 0
-76 716 0
-76 73 0
77 -717 -24 0
-77 717 0
-77 24 0
78 -77 -718 0
-78 77 0
-78 718 0
79 -719 -76 0
-79 719 0
-79 76 0
80 -715 -720 0
-80 715 0
-80 720 0
81 -80 -26 0
-81 80 0
-81 26 0
82 -721 -79 0
-82 721 0
-82 79 0
83 -722 -23 0
-83 722 0
-83 23 0
84 -83 -723 0
-84 83 0
-84 723 0
85 -724 -82 0
-85 724 0
-85 82 0
86 -28 -725 0
-86 28 0
-86 725 0
87 -86 -705 0
-87 86 0
-87 705 0
88 -726 -85 0
-88 726 0
-88 85 0
89 -30 -727 0
-89 30 0
-89 727 0
90 -89 -728 0
-90 89 0
-90 728 0
91 -729 -88 0
-91 729 0
-91 88 0
92 -730 -6 0
-92 730 0
-92 6 0
93 -92 -17 0
-93 92 0
-93 17 0
94 -731 -91 0
-94 731 0
-94 91 0
95 -33 -732 0
-95 33 0
-95 732 0
96 -95 -733 0
-96 95 0
-96 733 0
97 -734 -94 0
-97 734 0
-97 94 0
98 -31 -1 0
-98 31 0
-98 1 0
99 -98 -35 0
-99 98 0
-99 35 0
100 -735 -97 0
-100 735 0
-100 97 0
101 -736 -709 0
-101 736 0
-101 709 0
102 -101 -11 0
-102 101 0
-102 11 0
103 -737 -100 0
-103 737 0
-103 100 0
104 -9 -738 0
-104 9 0
-104 738 0
105 -104 -739 0
-105 104 0
-105 739 0
106 -740 -103 0
-106 740 0
-106 103 0
107 -27 -696 0
-107 27 0
-107 696 0
108 -107 -15 0
-108 107 0
-108 15 0
109 -741 -106 0
-109 741 0
-109 106 0
110 -21 -703 0
-110 21 0
-110 703 0
111 -110 -715 0
-111 110 0
-111 715 0
112 -742 -109 0
-112 742 0
-112 109 0
113 -29 -743 0
-113 29 0
-113 743 0
114 -113 -705 0
-114 113 0
-114 705 0
115 -744 -112 0
-115 744 0
-115 112 0
116 -745 -21 0
-116 745 0
-116 21 0
117 -116 -746 0
-117 116 0
-117 746 0
118 -747 -115 0
-118 747 0
-118 115 0
119 -748 -13 0
-119 748 0
-119 13 0
120 -119 -15 0
-120 119 0
-120 15 0
121 -749 -118 0
-121 749 0
-121 118 0
122 -40 -722 0
-122 40 0
-122 722 0
123 -122 -715 0
-123 122 0
-123 715 0
124 -750 -121 0
-124 750 0
-124 121 0
125 -751 -752 0
-125 751 0
-125 752 0
126 -125 -37 0
-126 125 0
-126 37 0
127 -753 -124 0
-127 753 0
-127 124 0
128 -732 -727 0
-128 732 0
-128 727 0
129 -128 -22 0
-129 128 0
-129 22 0
130 -754 -127 0
-130 754 0
-130 127 0
131 -730 -699 0
-131 730 0
-131 699 0
132 -131 -715 0
-132 131 0
-132 715 0
133 -755 -130 0
-133 755 0
-133 130 0
134 -756 -13 0
-134 756 0
-134 13 0
135 -134 -717 0
-135 134 0
-135 717 0
136 -757 -133 0
-136 757 0
-136 133 0
137 -705 -700 0
-137 705 0
-137 700 0
138 -137 -37 0
-138 137 0
-138 37 0
139 -758 -136 0
-139 758 0
-139 136 0
140 -30 -713 0
-140 30 0
-140 713 0
141 -140 -24 0
-141 140 0
-141 24 0
142 -759 -139 0
-142 759 0
-142 139 0
143 -39 -15 0
-143 39 0
-143 15 0
144 -143 -17 0
-144 143 0
-144 17 0
145 -760 -142 0
-145 760 0
-145 142 0
146 -12 -709 0
-146 12 0
-146 709 0
147 -146 -42 0
-147 146 0
-147 42 0
148 -761 -145 0
-148 761 0
-148 145 0
149 -728 -9 0
-149 728 0
-149 9 0
150 -149 -22 0
-150 149 0
-150 22 0
151 -762 -148 0
-151 762 0
-151 148 0
152 -717 -709 0
-152 717 0
-152 709 0
153 -152 -23 0
-153 152 0
-153 23 0
154 -763 -151 0
-154 763 0
-154 151 0
155 -29 -11 0
-155 29 0
-155 11 0
156 -155 -35 0
-156 155 0
-156 35 0
157 -764 -154 0
-157 764 0
-157 154 0
158 -765 -717 0
-158 765 0
-158 717 0
159 -158 -26 0
-159 158 0
-159 26 0
160 -766 -157 0
-160 766 0
-160 157 0
161 -19 -11 0
-161 19 0
-161 11 0
162 -161 -767 0
-162 161 0
-162 767 0
163 -768 -160 0
-163 768 0
-163 160 0
164 -769 -9 0
-164 769 0
-164 9 0
165 -164 -42 0
-165 164 0
-165 42 0
166 -770 -163 0
-166 770 0
-166 163 0
167 -41 -12 0
-167 41 0
-167 12 0
168 -167 -43 0
-168 167 0
-168 43 0
169 -771 -166 0
-169 771 0
-169 166 0
170 -39 -32 0
-170 39 0
-170 32 0
171 -170 -43 0
-171 170 0
-171 43 0
172 -772 -169 0
-172 772 0
-172 169 0
173 -709 -1 0
-173 709 0
-173 1 0
174 -173 -725 0
-174 173 0
-174 725 0
175 -773 -172 0
-175 773 0
-175 172 0
176 -44 -10 0
-176 44 0
-176 10 0
177 -176 -45 0
-177 176 0
-177 45 0
178 -774 -175 0
-178 774 0
-178 175 0
179 -7 -5 0
-179 7 0
-179 5 0
180 -179 -723 0
-180 179 0
-180 723 0
181 -775 -178 0
-181 775 0
-181 178 0
182 -776 -8 0
-182 776 0
-182 8 0
183 -182 -37 0
-183 182 0
-183 37 0
184 -777 -181 0
-184 777 0
-184 181 0
185 -778 -743 0
-185 778 0
-185 743 0
186 -185 -769 0
-186 185 0
-186 769 0
187 -779 -184 0
-187 779 0
-187 184 0
188 -18 -14 0
-188 18 0
-188 14 0
189 -188 -718 0
-189 188 0
-189 718 0
190 -780 -187 0
-190 780 0
-190 187 0
191 -46 -722 0
-191 46 0
-191 722 0
192 -191 -17 0
-192 191 0
-192 17 0
193 -781 -190 0
-193 781 0
-193 190 0
194 -739 -705 0
-194 739 0
-194 705 0
195 -194 -782 0
-195 194 0
-195 782 0
196 -783 -193 0
-196 783 0
-196 193 0
197 -784 -769 0
-197 784 0
-197 769 0
198 -197 -46 0
-198 197 0
-198 46 0
199 -785 -196 0
-199 785 0
-199 196 0
200 -732 -5 0
-200 732 0
-200 5 0
201 -200 -44 0
-201 200 0
-201 44 0
202 -786 -199 0
-202 786 0
-202 199 0
203 -745 -23 0
-203 745 0
-203 23 0
204 -203 -49 0
-204 203 0
-204 49 0
205 -787 -202 0
-205 787 0
-205 202 0
206 -788 -705 0
-206 788 0
-206 705 0
207 -206 -723 0
-207 206 0
-207 723 0
208 -789 -205 0
-208 789 0
-208 205 0
209 -704 -709 0
-209 704 0
-209 709 0
210 -209 -47 0
-210 209 0
-210 47 0
211 -790 -208 0
-211 790 0
-211 208 0
212 -36 -15 0
-212 36 0
-212 15 0
213 -212 -718 0
-213 212 0
-213 718 0
214 -791 -211 0
-214 791 0
-214 211 0
215 -30 -18 0
-215 30 0
-215 18 0
216 -215 -19 0
-216 215 0
-216 19 0
217 -792 -214 0
-217 792 0
-217 214 0
218 -16 -701 0
-218 16 0
-218 701 0
219 -218 -43 0
-219 218 0
-219 43 0
220 -793 -217 0
-220 793 0
-220 217 0
221 -6 -696 0
-221 6 0
-221 696 0
222 -221 -718 0
-222 221 0
-222 718 0
223 -794 -220 0
-223 794 0
-223 220 0
224 -24 -699 0
-224 24 0
-224 699 0
225 -224 -696 0
-225 224 0
-225 696 0
226 -795 -223 0
-226 795 0
-226 223 0
227 -29 -701 0
-227 29 0
-227 701 0
228 -227 -47 0
-228 227 0
-228 47 0
229 -796 -226 0
-229 796 0
-229 226 0
230 -769 -10 0
-230 769 0
-230 10 0
231 -230 -23 0
-231 230 0
-231 23 0
232 -797 -229 0
-232 797 0
-232 229 0
233 -798 -765 0
-233 798 0
-233 765 0
234 -233 -799 0
-234 233 0
-234 799 0
235 -800 -232 0
-235 800 0
-235 232 0
236 -765 -28 0
-236 765 0
-236 28 0
237 -236 -45 0
-237 236 0
-237 45 0
238 -801 -235 0
-238 801 0
-238 235 0
239 -36 -21 0
-239 36 0
-239 21 0
240 -239 -50 0
-240 239 0
-240 50 0
241 -802 -238 0
-241 802 0
-241 238 0
242 -36 -803 0
-242 36 0
-242 803 0
243 -242 -33 0
-243 242 0
-243 33 0
244 -804 -241 0
-244 804 0
-244 241 0
245 -751 -703 0
-245 751 0
-245 703 0
246 -245 -46 0
-246 245 0
-246 46 0
247 -805 -244 0
-247 805 0
-247 244 0
248 -12 -738 0
-248 12 0
-248 738 0
249 -248 -806 0
-249 248 0
-249 806 0
250 -807 -247 0
-250 807 0
-250 247 0
251 -769 -725 0
-251 769 0
-251 725 0
252 -251 -47 0
-252 251 0
-252 47 0
253 -808 -250 0
-253 808 0
-253 250 0
254 -748 -18 0
-254 748 0
-254 18 0
255 -254 -14 0
-255 254 0
-255 14 0
256 -809 -253 0
-256 809 0
-256 253 0
257 -39 -728 0
-257 39 0
-257 728 0
258 -257 -799 0
-258 257 0
-258 799 0
259 -810 -256 0
-259 810 0
-259 256 0
260 -25 -16 0
-260 25 0
-260 16 0
261 -260 -723 0
-261 260 0
-261 723 0
262 -811 -259 0
-262 811 0
-262 259 0
263 -736 -699 0
-263 736 0
-263 699 0
264 -263 -27 0
-264 263 0
-264 27 0
265 -812 -262 0
-265 812 0
-265 262 0
266 -727 -3 0
-266 727 0
-266 3 0
267 -266 -717 0
-267 266 0
-267 717 0
268 -813 -265 0
-268 813 0
-268 265 0
269 -25 -730 0
-269 25 0
-269 730 0
270 -269 -47 0
-270 269 0
-270 47 0
271 -814 -268 0
-271 814 0
-271 268 0
272 -769 -12 0
-272 769 0
-272 12 0
273 -272 -746 0
-273 272 0
-273 746 0
274 -815 -271 0
-274 815 0
-274 271 0
275 -39 -743 0
-275 39 0
-275 743 0
276 -275 -746 0
-276 275 0
-276 746 0
277 -816 -274 0
-277 816 0
-277 274 0
278 -769 -722 0
-278 769 0
-278 722 0
279 -278 -806 0
-279 278 0
-279 806 0
280 -817 -277 0
-280 817 0
-280 277 0
281 -732 -24 0
-281 732 0
-281 24 0
282 -281 -803 0
-282 281 0
-282 803 0
283 -818 -280 0
-283 818 0
-283 280 0
284 -778 -776 0
-284 778 0
-284 776 0
285 -284 -819 0
-285 284 0
-285 819 0
286 -820 -283 0
-286 820 0
-286 283 0
287 -50 -15 0
-287 50 0
-287 15 0
288 -287 -767 0
-288 287 0
-288 767 0
289 -821 -286 0
-289 821 0
-289 286 0
290 -720 -15 0
-290 720 0
-290 15 0
291 -290 -822 0
-291 290 0
-291 822 0
292 -823 -289 0
-292 823 0
-292 289 0
293 -281 -746 0
-293 281 0
-293 746 0
294 -824 -292 0
-294 824 0
-294 292 0
295 -39 -727 0
-295 39 0
-295 727 0
296 -295 -27 0
-296 295 0
-296 27 0
297 -825 -294 0
-297 825 0
-297 294 0
298 -769 -743 0
-298 769 0
-298 743 0
299 -298 -38 0
-299 298 0
-299 38 0
300 -826 -297 0
-300 826 0
-300 297 0
301 -765 -5 0
-301 765 0
-301 5 0
302 -301 -827 0
-302 301 0
-302 827 0
303 -828 -300 0
-303 828 0
-303 300 0
304 -715 -2 0
-304 715 0
-304 2 0
305 -304 -819 0
-305 304 0
-305 819 0
306 -829 -303 0
-306 829 0
-306 303 0
307 -13 -700 0
-307 13 0
-307 700 0
308 -307 -782 0
-308 307 0
-308 782 0
309 -830 -306 0
-309 830 0
-309 306 0
310 -728 -778 0
-310 728 0
-310 778 0
311 -310 -34 0
-311 310 0
-311 34 0
312 -831 -309 0
-312 831 0
-312 309 0
313 -752 -4 0
-313 752 0
-313 4 0
314 -313 -782 0
-314 313 0
-314 782 0
315 -832 -312 0
-315 832 0
-315 312 0
316 -37 -711 0
-316 37 0
-316 711 0
317 -316 -26 0
-317 316 0
-317 26 0
318 -833 -315 0
-318 833 0
-318 315 0
319 -41 -14 0
-319 41 0
-319 14 0
320 -319 -798 0
-320 319 0
-320 798 0
321 -834 -318 0
-321 834 0
-321 318 0
322 -43 -27 0
-322 43 0
-322 27 0
323 -322 -806 0
-323 322 0
-323 806 0
324 -835 -321 0
-324 835 0
-324 321 0
325 -784 -696 0
-325 784 0
-325 696 0
326 -325 -40 0
-326 325 0
-326 40 0
327 -836 -324 0
-327 836 0
-327 324 0
328 -709 -696 0
-328 709 0
-328 696 0
329 -328 -9 0
-329 328 0
-329 9 0
330 -837 -327 0
-330 837 0
-330 327 0
331 -748 -709 0
-331 748 0
-331 709 0
332 -331 -42 0
-332 331 0
-332 42 0
333 -838 -330 0
-333 838 0
-333 330 0
334 -19 -696 0
-334 19 0
-334 696 0
335 -334 -14 0
-335 334 0
-335 14 0
336 -839 -333 0
-336 839 0
-336 333 0
337 -149 -730 0
-337 149 0
-337 730 0
338 -840 -336 0
-338 840 0
-338 336 0
339 -48 -756 0
-339 48 0
-339 756 0
340 -339 -827 0
-340 339 0
-340 827 0
341 -841 -338 0
-341 841 0
-341 338 0
342 -730 -788 0
-342 730 0
-342 788 0
343 -342 -715 0
-343 342 0
-343 715 0
344 -842 -341 0
-344 842 0
-344 341 0
345 -784 -703 0
-345 784 0
-345 703 0
346 -345 -3 0
-346 345 0
-346 3 0
347 -843 -344 0
-347 843 0
-347 344 0
348 -732 -718 0
-348 732 0
-348 718 0
349 -348 -806 0
-349 348 0
-349 806 0
350 -844 -347 0
-350 844 0
-350 347 0
351 -767 -5 0
-351 767 0
-351 5 0
352 -351 -45 0
-352 351 0
-352 45 0
353 -845 -350 0
-353 845 0
-353 350 0
354 -15 -700 0
-354 15 0
-354 700 0
355 -354 -44 0
-355 354 0
-355 44 0
356 -846 -353 0
-356 846 0
-356 353 0
357 -41 -704 0
-357 41 0
-357 704 0
358 -357 -765 0
-358 357 0
-358 765 0
359 -847 -356 0
-359 847 0
-359 356 0
360 -41 -13 0
-360 41 0
-360 13 0
361 -360 -8 0
-361 360 0
-361 8 0
362 -848 -359 0
-362 848 0
-362 359 0
363 -50 -40 0
-363 50 0
-363 40 0
364 -363 -767 0
-364 363 0
-364 767 0
365 -849 -362 0
-365 849 0
-365 362 0
366 -32 -704 0
-366 32 0
-366 704 0
367 -366 -720 0
-367 366 0
-367 720 0
368 -850 -365 0
-368 850 0
-368 365 0
369 -765 -1 0
-369 765 0
-369 1 0
370 -369 -705 0
-370 369 0
-370 705 0
371 -851 -368 0
-371 851 0
-371 368 0
372 -767 -14 0
-372 767 0
-372 14 0
373 -372 -852 0
-373 372 0
-373 852 0
374 -853 -371 0
-374 853 0
-374 371 0
375 -29 -704 0
-375 29 0
-375 704 0
376 -375 -2 0
-376 375 0
-376 2 0
377 -854 -374 0
-377 854 0
-377 374 0
378 -39 -10 0
-378 39 0
-378 10 0
379 -378 -782 0
-379 378 0
-379 782 0
380 -855 -377 0
-380 855 0
-380 377 0
381 -28 -700 0
-381 28 0
-381 700 0
382 -381 -49 0
-382 381 0
-382 49 0
383 -856 -380 0
-383 856 0
-383 380 0
384 -41 -18 0
-384 41 0
-384 18 0
385 -384 -765 0
-385 384 0
-385 765 0
386 -857 -383 0
-386 857 0
-386 383 0
387 -14 -9 0
-387 14 0
-387 9 0
388 -387 -769 0
-388 387 0
-388 769 0
389 -858 -386 0
-389 858 0
-389 386 0
390 -722 -723 0
-390 722 0
-390 723 0
391 -390 -49 0
-391 390 0
-391 49 0
392 -859 -389 0
-392 859 0
-392 389 0
393 -32 -720 0
-393 32 0
-393 720 0
394 -393 -715 0
-394 393 0
-394 715 0
395 -860 -392 0
-395 860 0
-395 392 0
396 -819 -732 0
-396 819 0
-396 732 0
397 -396 -34 0
-397 396 0
-397 34 0
398 -861 -395 0
-398 861 0
-398 395 0
399 -819 -24 0
-399 819 0
-399 24 0
400 -399 -34 0
-400 399 0
-400 34 0
401 -862 -398 0
-401 862 0
-401 398 0
402 -30 -730 0
-402 30 0
-402 730 0
403 -402 -49 0
-403 402 0
-403 49 0
404 -863 -401 0
-404 863 0
-404 401 0
405 -44 -696 0
-405 44 0
-405 696 0
406 -405 -20 0
-406 405 0
-406 20 0
407 -864 -404 0
-407 864 0
-407 404 0
408 -357 -14 0
-408 357 0
-408 14 0
409 -865 -407 0
-409 865 0
-409 407 0
410 -720 -8 0
-410 720 0
-410 8 0
411 -410 -696 0
-411 410 0
-411 696 0
412 -866 -409 0
-412 866 0
-412 409 0
413 -32 -705 0
-413 32 0
-413 705 0
414 -413 -15 0
-414 413 0
-414 15 0
415 -867 -412 0
-415 867 0
-415 412 0
416 -782 -765 0
-416 782 0
-416 765 0
417 -416 -42 0
-417 416 0
-417 42 0
418 -868 -415 0
-418 868 0
-418 415 0
419 -36 -13 0
-419 36 0
-419 13 0
420 -419 -28 0
-420 419 0
-420 28 0
421 -869 -418 0
-421 869 0
-421 418 0
422 -32 -4 0
-422 32 0
-422 4 0
423 -422 -6 0
-423 422 0
-423 6 0
424 -870 -421 0
-424 870 0
-424 421 0
425 -22 -11 0
-425 22 0
-425 11 0
426 -425 -34 0
-426 425 0
-426 34 0
427 -871 -424 0
-427 871 0
-427 424 0
428 -705 -725 0
-428 705 0
-428 725 0
429 -428 -723 0
-429 428 0
-429 723 0
430 -872 -427 0
-430 872 0
-430 427 0
431 -43 -725 0
-431 43 0
-431 725 0
432 -431 -798 0
-432 431 0
-432 798 0
433 -873 -430 0
-433 873 0
-433 430 0
434 -799 -806 0
-434 799 0
-434 806 0
435 -434 -42 0
-435 434 0
-435 42 0
436 -874 -433 0
-436 874 0
-436 433 0
437 -46 -827 0
-437 46 0
-437 827 0
438 -437 -733 0
-438 437 0
-438 733 0
439 -875 -436 0
-439 875 0
-439 436 0
440 -146 -46 0
-440 146 0
-440 46 0
441 -876 -439 0
-441 876 0
-441 439 0
442 -41 -696 0
-442 41 0
-442 696 0
443 -442 -20 0
-443 442 0
-443 20 0
444 -877 -441 0
-444 877 0
-444 441 0
445 -36 -727 0
-445 36 0
-445 727 0
446 -445 -778 0
-446 445 0
-446 778 0
447 -878 -444 0
-447 878 0
-447 444 0
448 -728 -12 0
-448 728 0
-448 12 0
449 -448 -730 0
-449 448 0
-449 730 0
450 -879 -447 0
-450 879 0
-450 447 0
451 -50 -22 0
-451 50 0
-451 22 0
452 -451 -827 0
-452 451 0
-452 827 0
453 -880 -450 0
-453 880 0
-453 450 0
454 -720 -13 0
-454 720 0
-454 13 0
455 -454 -2 0
-455 454 0
-455 2 0
456 -881 -453 0
-456 881 0
-456 453 0
457 -18 -1 0
-457 18 0
-457 1 0
458 -457 -776 0
-458 457 0
-458 776 0
459 -882 -456 0
-459 882 0
-459 456 0
460 -32 -23 0
-460 32 0
-460 23 0
461 -460 -806 0
-461 460 0
-461 806 0
462 -883 -459 0
-462 883 0
-462 459 0
463 -39 -16 0
-463 39 0
-463 16 0
464 -463 -36 0
-464 463 0
-464 36 0
465 -884 -462 0
-465 884 0
-465 462 0
466 -776 -788 0
-466 776 0
-466 788 0
467 -466 -730 0
-467 466 0
-467 730 0
468 -885 -465 0
-468 885 0
-468 465 0
469 -784 -20 0
-469 784 0
-469 20 0
470 -469 -799 0
-470 469 0
-470 799 0
471 -886 -468 0
-471 886 0
-471 468 0
472 -767 -803 0
-472 767 0
-472 803 0
473 -472 -45 0
-473 472 0
-473 45 0
474 -887 -471 0
-474 887 0
-474 471 0
475 -22 -4 0
-475 22 0
-475 4 0
476 -475 -827 0
-476 475 0
-476 827 0
477 -888 -474 0
-477 888 0
-477 474 0
478 -736 -8 0
-478 736 0
-478 8 0
479 -478 -806 0
-479 478 0
-479 806 0
480 -889 -477 0
-480 889 0
-480 477 0
481 -748 -5 0
-481 748 0
-481 5 0
482 -481 -822 0
-482 481 0
-482 822 0
483 -890 -480 0
-483 890 0
-483 480 0
484 -30 -699 0
-484 30 0
-484 699 0
485 -484 -788 0
-485 484 0
-485 788 0
486 -891 -483 0
-486 891 0
-486 483 0
487 -20 -720 0
-487 20 0
-487 720 0
488 -487 -45 0
-488 487 0
-488 45 0
489 -892 -486 0
-489 892 0
-489 486 0
490 -40 -16 0
-490 40 0
-490 16 0
491 -490 -827 0
-491 490 0
-491 827 0
492 -893 -489 0
-492 893 0
-492 489 0
493 -39 -12 0
-493 39 0
-493 12 0
494 -493 -822 0
-494 493 0
-494 822 0
495 -894 -492 0
-495 894 0
-495 492 0
496 -18 -703 0
-496 18 0
-496 703 0
497 -496 -701 0
-497 496 0
-497 701 0
498 -895 -495 0
-498 895 0
-498 495 0
499 -784 -24 0
-499 784 0
-499 24 0
500 -499 -21 0
-500 499 0
-500 21 0
501 -896 -498 0
-501 896 0
-501 498 0
502 -738 -713 0
-502 738 0
-502 713 0
503 -502 -718 0
-503 502 0
-503 718 0
504 -897 -501 0
-504 897 0
-504 501 0
505 -898 -718 0
-505 898 0
-505 718 0
506 -505 -723 0
-506 505 0
-506 723 0
507 -899 -504 0
-507 899 0
-507 504 0
508 -41 -709 0
-508 41 0
-508 709 0
509 -508 -49 0
-509 508 0
-509 49 0
510 -900 -507 0
-510 900 0
-510 507 0
511 -784 -713 0
-511 784 0
-511 713 0
512 -511 -743 0
-512 511 0
-512 743 0
513 -901 -510 0
-513 901 0
-513 510 0
514 -732 -7 0
-514 732 0
-514 7 0
515 -514 -715 0
-515 514 0
-515 715 0
516 -902 -513 0
-516 902 0
-516 513 0
517 -784 -699 0
-517 784 0
-517 699 0
518 -517 -21 0
-518 517 0
-518 21 0
519 -903 -516 0
-519 903 0
-519 516 0
520 -48 -704 0
-520 48 0
-520 704 0
521 -520 -31 0
-521 520 0
-521 31 0
522 -904 -519 0
-522 904 0
-522 519 0
523 -715 -738 0
-523 715 0
-523 738 0
524 -523 -822 0
-524 523 0
-524 822 0
525 -905 -522 0
-525 905 0
-525 522 0
526 -798 -24 0
-526 798 0
-526 24 0
527 -526 -803 0
-527 526 0
-527 803 0
528 -906 -525 0
-528 906 0
-528 525 0
529 -776 -13 0
-529 776 0
-529 13 0
530 -529 -733 0
-530 529 0
-530 733 0
531 -907 -528 0
-531 907 0
-531 528 0
532 -30 -21 0
-532 30 0
-532 21 0
533 -532 -47 0
-533 532 0
-533 47 0
534 -908 -531 0
-534 908 0
-534 531 0
535 -10 -713 0
-535 10 0
-535 713 0
536 -535 -14 0
-536 535 0
-536 14 0
537 -909 -534 0
-537 909 0
-537 534 0
538 -43 -20 0
-538 43 0
-538 20 0
539 -538 -806 0
-539 538 0
-539 806 0
540 -910 -537 0
-540 910 0
-540 537 0
541 -35 -898 0
-541 35 0
-541 898 0
542 -541 -34 0
-542 541 0
-542 34 0
543 -911 -540 0
-543 911 0
-543 540 0
544 -47 -720 0
-544 47 0
-544 720 0
545 -544 -767 0
-545 544 0
-545 767 0
546 -912 -543 0
-546 912 0
-546 543 0
547 -313 -17 0
-547 313 0
-547 17 0
548 -913 -546 0
-548 913 0
-548 546 0
549 -28 -699 0
-549 28 0
-549 699 0
550 -549 -798 0
-550 549 0
-550 798 0
551 -914 -548 0
-551 914 0
-551 548 0
552 -32 -722 0
-552 32 0
-552 722 0
553 -552 -49 0
-553 552 0
-553 49 0
554 -915 -551 0
-554 915 0
-554 551 0
555 -36 -32 0
-555 36 0
-555 32 0
556 -555 -765 0
-556 555 0
-556 765 0
557 -916 -554 0
-557 916 0
-557 554 0
558 -38 -6 0
-558 38 0
-558 6 0
559 -558 -23 0
-559 558 0
-559 23 0
560 -917 -557 0
-560 917 0
-560 557 0
561 -39 -713 0
-561 39 0
-561 713 0
562 -561 -38 0
-562 561 0
-562 38 0
563 -918 -560 0
-563 918 0
-563 560 0
564 -784 -756 0
-564 784 0
-564 756 0
565 -564 -8 0
-565 564 0
-565 8 0
566 -919 -563 0
-566 919 0
-566 563 0
567 -31 -2 0
-567 31 0
-567 2 0
568 -567 -38 0
-568 567 0
-568 38 0
569 -920 -566 0
-569 920 0
-569 566 0
570 -541 -715 0
-570 541 0
-570 715 0
571 -921 -569 0
-571 921 0
-571 569 0
572 -745 -29 0
-572 745 0
-572 29 0
573 -572 -49 0
-573 572 0
-573 49 0
574 -922 -571 0
-574 922 0
-574 571 0
575 -748 -29 0
-575 748 0
-575 29 0
576 -575 -16 0
-576 575 0
-576 16 0
577 -923 -574 0
-577 923 0
-577 574 0
578 -732 -752 0
-578 732 0
-578 752 0
579 -578 -718 0
-579 578 0
-579 718 0
580 -924 -577 0
-580 924 0
-580 577 0
581 -28 -24 0
-581 28 0
-581 24 0
582 -581 -739 0
-582 581 0
-582 739 0
583 -925 -580 0
-583 925 0
-583 580 0
584 -43 -29 0
-584 43 0
-584 29 0
585 -584 -819 0
-585 584 0
-585 819 0
586 -926 -583 0
-586 926 0
-586 583 0
587 -41 -748 0
-587 41 0
-587 748 0
588 -587 -17 0
-588 587 0
-588 17 0
589 -927 -586 0
-589 927 0
-589 586 0
590 -722 -803 0
-590 722 0
-590 803 0
591 -590 -733 0
-591 590 0
-591 733 0
592 -928 -589 0
-592 928 0
-592 589 0
593 -22 -743 0
-593 22 0
-593 743 0
594 -593 -20 0
-594 593 0
-594 20 0
595 -929 -592 0
-595 929 0
-595 592 0
596 -22 -9 0
-596 22 0
-596 9 0
597 -596 -782 0
-597 596 0
-597 782 0
598 -930 -595 0
-598 930 0
-598 595 0
599 -803 -699 0
-599 803 0
-599 699 0
600 -599 -852 0
-600 599 0
-600 852 0
601 -931 -598 0
-601 931 0
-601 598 0
602 -30 -898 0
-602 30 0
-602 898 0
603 -602 -15 0
-603 602 0
-603 15 0
604 -932 -601 0
-604 932 0
-604 601 0
605 -32 -709 0
-605 32 0
-605 709 0
606 -605 -21 0
-606 605 0
-606 21 0
607 -933 -604 0
-607 933 0
-607 604 0
608 -715 -752 0
-608 715 0
-608 752 0
609 -608 -723 0
-609 608 0
-609 723 0
610 -934 -607 0
-610 934 0
-610 607 0
611 -11 -699 0
-611 11 0
-611 699 0
612 -611 -17 0
-612 611 0
-612 17 0
613 -935 -610 0
-613 935 0
-613 610 0
614 -43 -12 0
-614 43 0
-614 12 0
615 -614 -715 0
-615 614 0
-615 715 0
616 -936 -613 0
-616 936 0
-616 613 0
617 -711 -699 0
-617 711 0
-617 699 0
618 -617 -852 0
-618 617 0
-618 852 0
619 -937 -616 0
-619 937 0
-619 616 0
620 -36 -16 0
-620 36 0
-620 16 0
621 -620 -19 0
-621 620 0
-621 19 0
622 -938 -619 0
-622 938 0
-622 619 0
623 -3 -725 0
-623 3 0
-623 725 0
624 -623 -701 0
-624 623 0
-624 701 0
625 -939 -622 0
-625 939 0
-625 622 0
626 -745 -18 0
-626 745 0
-626 18 0
627 -626 -22 0
-627 626 0
-627 22 0
628 -940 -625 0
-628 940 0
-628 625 0
629 -36 -745 0
-629 36 0
-629 745 0
630 -629 -788 0
-630 629 0
-630 788 0
631 -941 -628 0
-631 941 0
-631 628 0
632 -745 -28 0
-632 745 0
-632 28 0
633 -632 -746 0
-633 632 0
-633 746 0
634 -942 -631 0
-634 942 0
-634 631 0
635 -730 -703 0
-635 730 0
-635 703 0
636 -635 -782 0
-636 635 0
-636 782 0
637 -943 -634 0
-637 943 0
-637 634 0
638 -25 -7 0
-638 25 0
-638 7 0
639 -638 -819 0
-639 638 0
-639 819 0
640 -944 -637 0
-640 944 0
-640 637 0
641 -732 -713 0
-641 732 0
-641 713 0
642 -641 -26 0
-642 641 0
-642 26 0
643 -945 -640 0
-643 945 0
-643 640 0
644 -30 -752 0
-644 30 0
-644 752 0
645 -644 -739 0
-645 644 0
-645 739 0
646 -946 -643 0
-646 946 0
-646 643 0
647 -131 -799 0
-647 131 0
-647 799 0
648 -947 -646 0
-648 947 0
-648 646 0
649 -44 -32 0
-649 44 0
-649 32 0
650 -649 -34 0
-650 649 0
-650 34 0
651 -948 -648 0
-651 948 0
-651 648 0
652 -19 -18 0
-652 19 0
-652 18 0
653 -652 -6 0
-653 652 0
-653 6 0
654 -949 -651 0
-654 949 0
-654 651 0
655 -745 -704 0
-655 745 0
-655 704 0
656 -655 -9 0
-656 655 0
-656 9 0
657 -950 -654 0
-657 950 0
-657 654 0
658 -26 -1 0
-658 26 0
-658 1 0
659 -658 -852 0
-659 658 0
-659 852 0
660 -951 -657 0
-660 951 0
-660 657 0
661 -707 -4 0
-661 707 0
-661 4 0
662 -661 -798 0
-662 661 0
-662 798 0
663 -952 -660 0
-663 952 0
-663 660 0
664 -728 -5 0
-664 728 0
-664 5 0
665 -664 -12 0
-665 664 0
-665 12 0
666 -953 -663 0
-666 953 0
-666 663 0
667 -778 -711 0
-667 778 0
-667 711 0
668 -667 -718 0
-668 667 0
-668 718 0
669 -954 -666 0
-669 954 0
-669 666 0
670 -36 -28 0
-670 36 0
-670 28 0
671 -670 -34 0
-671 670 0
-671 34 0
672 -955 -669 0
-672 955 0
-672 669 0
673 -778 -14 0
-673 778 0
-673 14 0
674 -673 -45 0
-674 673 0
-674 45 0
675 -956 -672 0
-675 956 0
-675 672 0
676 -45 -4 0
-676 45 0
-676 4 0
677 -676 -806 0
-677 676 0
-677 806 0
678 -957 -675 0
-678 957 0
-678 675 0
679 -46 -727 0
-679 46 0
-679 727 0
680 -679 -26 0
-680 679 0
-680 26 0
681 -958 -678 0
-681 958 0
-681 678 0
682 -481 -23 0
-682 481 0
-682 23 0
683 -959 -681 0
-683 959 0
-683 681 0
684 -31 -705 0
-684 31 0
-684 705 0
685 -684 -769 0
-685 684 0
-685 769 0
686 -960 -683 0
-686 960 0
-686 683 0
687 -21 -10 0
-687 21 0
-687 10 0
688 -687 -822 0
-688 687 0
-688 822 0
689 -961 -686 0
-689 961 0
-689 686 0
690 -798 -736 0
-690 798 0
-690 736 0
691 -690 -37 0
-691 690 0
-691 37 0
692 -962 -689 0
-692 962 0
-692 689 0
693 -725 -713 0
-693 725 0
-693 713 0
694 -693 -24 0
-694 693 0
-694 24 0
695 -963 -692 0
-695 963 0
-695 692 0
-696 -3 0
696 3 0
-697 -54 0
697 54 0
-698 -52 0
698 52 0
-699 -8 0
699 8 0
-700 -7 0
700 7 0
-701 -9 0
701 9 0
-702 -57 0
702 57 0
-703 -11 0
703 11 0
-704 -10 0
704 10 0
-705 -12 0
705 12 0
-706 -60 0
706 60 0
-707 -13 0
707 13 0
-708 -63 0
708 63 0
-709 -4 0
709 4 0
-710 -66 0
710 66 0
-711 -18 0
711 18 0
-712 -69 0
712 69 0
-713 -1 0
713 1 0
-714 -72 0
714 72 0
-715 -22 0
715 22 0
-716 -75 0
716 75 0
-717 -25 0
717 25 0
-718 -17 0
718 17 0
-719 -78 0
719 78 0
-720 -16 0
720 16 0
-721 -81 0
721 81 0
-722 -27 0
722 27 0
-723 -26 0
723 26 0
-724 -84 0
724 84 0
-725 -2 0
725 2 0
-726 -87 0
726 87 0
-727 -29 0
727 29 0
-728 -31 0
728 31 0
-729 -90 0
729 90 0
-730 -15 0
730 15 0
-731 -93 0
731 93 0
-732 -32 0
732 32 0
-733 -34 0
733 34 0
-734 -96 0
734 96 0
-735 -99 0
735 99 0
-736 -36 0
736 36 0
-737 -102 0
737 102 0
-738 -6 0
738 6 0
-739 -37 0
739 37 0
-740 -105 0
740 105 0
-741 -108 0
741 108 0
-742 -111 0
742 111 0
-743 -5 0
743 5 0
-744 -114 0
744 114 0
-745 -35 0
745 35 0
-746 -38 0
746 38 0
-747 -117 0
747 117 0
-748 -39 0
748 39 0
-749 -120 0
749 120 0
-750 -123 0
750 123 0
-751 -41 0
751 41 0
-752 -21 0
752 21 0
-753 -126 0
753 126 0
-754 -129 0
754 129 0
-755 -132 0
755 132 0
-756 -30 0
756 30 0
-757 -135 0
757 135 0
-758 -138 0
758 138 0
-759 -141 0
759 141 0
-760 -144 0
760 144 0
-761 -147 0
761 147 0
-762 -150 0
762 150 0
-763 -153 0
763 153 0
-764 -156 0
764 156 0
-765 -40 0
765 40 0
-766 -159 0
766 159 0
-767 -23 0
767 23 0
-768 -162 0
768 162 0
-769 -43 0
769 43 0
-770 -165 0
770 165 0
-771 -168 0
771 168 0
-772 -171 0
772 171 0
-773 -174 0
773 174 0
-774 -177 0
774 177 0
-775 -180 0
775 180 0
-776 -24 0
776 24 0
-777 -183 0
777 183 0
-778 -28 0
778 28 0
-779 -186 0
779 186 0
-780 -189 0
780 189 0
-781 -192 0
781 192 0
-782 -47 0
782 47 0
-783 -195 0
783 195 0
-784 -48 0
784 48 0
-785 -198 0
785 198 0
-786 -201 0
786 201 0
-787 -204 0
787 204 0
-788 -14 0
788 14 0
-789 -207 0
789 207 0
-790 -210 0
790 210 0
-791 -213 0
791 213 0
-792 -216 0
792 216 0
-793 -219 0
793 219 0
-794 -222 0
794 222 0
-795 -225 0
795 225 0
-796 -228 0
796 228 0
-797 -231 0
797 231 0
-798 -44 0
798 44 0
-799 -50 0
799 50 0
-800 -234 0
800 234 0
-801 -237 0
801 237 0
-802 -240 0
802 240 0
-803 -20 0
803 20 0
-804 -243 0
804 243 0
-805 -246 0
805 246 0
-806 -49 0
806 49 0
-807 -249 0
807 249 0
-808 -252 0
808 252 0
-809 -255 0
809 255 0
-810 -258 0
810 258 0
-811 -261 0
811 261 0
-812 -264 0
812 264 0
-813 -267 0
813 267 0
-814 -270 0
814 270 0
-815 -273 0
815 273 0
-816 -276 0
816 276 0
-817 -279 0
817 279 0
-818 -282 0
818 282 0
-819 -46 0
819 46 0
-820 -285 0
820 285 0
-821 -288 0
821 288 0
-822 -45 0
822 45 0
-823 -291 0
823 291 0
-824 -293 0
824 293 0
-825 -296 0
825 296 0
-826 -299 0
826 299 0
-827 -33 0
827 33 0
-828 -302 0
828 302 0
-829 -305 0
829 305 0
-830 -308 0
830 308 0
-831 -311 0
831 311 0
-832 -314 0
832 314 0
-833 -317 0
833 317 0
-834 -320 0
834 320 0
-835 -323 0
835 323 0
-836 -326 0
836 326 0
-837 -329 0
837 329 0
-838 -332 0
838 332 0
-839 -335 0
839 335 0
-840 -337 0
840 337 0
-841 -340 0
841 340 0
-842 -343 0
842 343 0
-843 -346 0
843 346 0
-844 -349 0
844 349 0
-845 -352 0
845 352 0
-846 -355 0
846 355 0
-847 -358 0
847 358 0
-848 -361 0
848 361 0
-849 -364 0
849 364 0
-850 -367 0
850 367 0
-851 -370 0
851 370 0
-852 -42 0
852 42 0
-853 -373 0
853 373 0
-854 -376 0
854 376 0
-855 -379 0
855 379 0
-856 -382 0
856 382 0
-857 -385 0
857 385 0
-858 -388 0
858 388 0
-859 -391 0
859 391 0
-860 -394 0
860 394 0
-861 -397 0
861 397 0
-862 -400 0
862 400 0
-863 -403 0
863 403 0
-864 -406 0
864 406 0
-865 -408 0
865 408 0
-866 -411 0
866 411 0
-867 -414 0
867 414 0
-868 -417 0
868 417 0
-869 -420 0
869 420 0
-870 -423 0
870 423 0
-871 -426 0
871 426 0
-872 -429 0
872 429 0
-873 -432 0
873 432 0
-874 -435 0
874 435 0
-875 -438 0
875 438 0
-876 -440 0
876 440 0
-877 -443 0
877 443 0
-878 -446 0
878 446 0
-879 -449 0
879 449 0
-880 -452 0
880 452 0
-881 -455 0
881 455 0
-882 -458 0
882 458 0
-883 -461 0
883 461 0
-884 -464 0
884 464 0
-885 -467 0
885 467 0
-886 -470 0
886 470 0
-887 -473 0
887 473 0
-888 -476 0
888 476 0
-889 -479 0
889 479 0
-890 -482 0
890 482 0
-891 -485 0
891 485 0
-892 -488 0
892 488 0
-893 -491 0
893 491 0
-894 -494 0
894 494 0
-895 -497 0
895 497 0
-896 -500 0
896 500 0
-897 -503 0
897 503 0
-898 -19 0
898 19 0
-899 -506 0
899 506 0
-900 -509 0
900 509 0
-901 -512 0
901 512 0
-902 -515 0
902 515 0
-903 -518 0
903 518 0
-904 -521 0
904 521 0
-905 -524 0
905 524 0
-906 -527 0
906 527 0
-907 -530 0
907 530 0
-908 -533 0
908 533 0
-909 -536 0
909 536 0
-910 -539 0
910 539 0
-911 -542 0
911 542 0
-912 -545 0
912 545 0
-913 -547 0
913 547 0
-914 -550 0
914 550 0
-915 -553 0
915 553 0
-916 -556 0
916 556 0
-917 -559 0
917 559 0
-918 -562 0
918 562 0
-919 -565 0
919 565 0
-920 -568 0
920 568 0
-921 -570 0
921 570 0
-922 -573 0
922 573 0
-923 -576 0
923 576 0
-924 -579 0
924 579 0
-925 -582 0
925 582 0
-926 -585 0
926 585 0
-927 -588 0
927 588 0
-928 -591 0
928 591 0
-929 -594 0
929 594 0
-930 -597 0
930 597 0
-931 -600 0
931 600 0
-932 -603 0
932 603 0
-933 -606 0
933 606 0
-934 -609 0
934 609 0
-935 -612 0
935 612 0
-936 -615 0
936 615 0
-937 -618 0
937 618 0
-938 -621 0
938 621 0
-939 -624 0
939 624 0
-940 -627 0
940 627 0
-941 -630 0
941 630 0
-942 -633 0
942 633 0
-943 -636 0
943 636 0
-944 -639 0
944 639 0
-945 -642 0
945 642 0
-946 -645 0
946 645 0
-947 -647 0
947 647 0
-948 -650 0
948 650 0
-949 -653 0
949 653 0
-950 -656 0
950 656 0
-951 -659 0
951 659 0
-952 -662 0
952 662 0
-953 -665 0
953 665 0
-954 -668 0
954 668 0
-955 -671 0
955 671 0
-956 -674 0
956 674 0
-957 -677 0
957 677 0
-958 -680 0
958 680 0
-959 -682 0
959 682 0
-960 -685 0
960 685 0
-961 -688 0
961 688 0
-962 -691 0
962 691 0
-963 -694 0
963 694 0
695 0
